c Random 8-CNF over 40 variables and 80 clauses
c Generated with `cnfgen`
c (C) 2012-2016 Massimo Lauria <lauria.massimo@gmail.com>
c https://massimolauria.github.io/cnfgen
c
c COMMAND LINE: cnfgen --output tmp-8-40-80.dimacs --output-format dimacs randkcnf 8 40 80
c
c sdimacs generated by gen-sdimacs
c
p cnf 40 80
r 0.5 1 2 3 4 5 6 7 8 9 10 11 12 13 14 15 16 17 18 19 20 0
e  21 22 23 24 25 26 27 28 29 30 31 32 33 34 35 36 37 38 39 40 0
7 -10 12 20 -24 -28 -30 39 0
4 13 23 -24 25 28 32 38 0
-6 7 8 -10 11 -17 -20 38 0
-6 -7 12 -17 20 -29 -37 38 0
17 18 -24 -25 26 -31 36 40 0
-3 7 19 20 -22 28 -29 33 0
-3 5 7 23 24 27 -28 40 0
4 -8 -21 -31 32 -34 -36 40 0
10 -11 13 28 33 36 39 40 0
-6 -8 12 13 16 -23 -37 38 0
-2 6 7 -10 20 25 32 39 0
-5 12 13 -15 -22 -27 -32 -34 0
2 -13 -19 -20 23 27 34 -38 0
11 13 14 -24 -25 -29 34 -37 0
1 3 4 -9 12 -20 21 27 0
1 -3 5 6 28 -31 -35 -38 0
15 16 17 -18 -23 -24 -27 -40 0
1 6 7 8 24 27 36 -40 0
-6 -21 -27 -29 -30 34 35 -37 0
2 4 -12 -17 22 32 -33 34 0
-2 5 -7 -15 22 24 30 -31 0
1 -7 -11 15 30 -31 35 39 0
-5 -7 9 -18 -21 30 35 36 0
5 9 12 14 25 -34 -35 38 0
1 4 -5 -7 -8 18 34 -40 0
5 -8 13 -15 -18 -26 27 -29 0
3 -5 10 17 19 -24 -26 39 0
-8 15 21 -24 -33 36 -37 40 0
10 12 -17 -19 26 -29 38 -40 0
3 15 -24 -33 35 36 37 -40 0
12 15 16 19 -23 -30 33 -39 0
6 -14 -18 -21 -22 24 25 -37 0
-1 -9 -17 -20 23 32 -37 -40 0
1 5 10 -17 24 30 35 39 0
1 -9 13 -14 -30 -31 -38 39 0
-6 10 -13 14 27 -30 31 -32 0
-1 2 5 -6 7 -20 -26 34 0
4 15 16 20 24 -28 37 -39 0
1 3 -5 20 27 30 -33 38 0
3 5 7 -8 -20 24 33 35 0
5 8 12 30 31 32 33 35 0
-6 -9 14 -15 -21 -31 -33 -34 0
-1 -2 -3 -13 -14 -15 18 37 0
-2 -5 9 -18 21 24 28 -32 0
-3 -8 -10 18 -20 -21 26 -31 0
-1 2 7 18 -23 32 36 -37 0
6 7 -15 -17 18 34 39 40 0
4 12 -19 -25 30 35 37 39 0
-2 7 -13 21 -23 26 37 -39 0
6 12 -18 22 -23 -32 -34 37 0
-6 -8 12 15 29 30 -33 40 0
3 9 -18 -21 -29 31 35 36 0
5 -13 15 17 -23 24 28 -36 0
2 -7 11 -22 -24 -25 26 -30 0
-1 -5 -7 18 23 -29 -34 -39 0
8 -19 22 25 -28 -35 38 40 0
4 -6 9 -11 14 15 -19 24 0
1 4 -6 11 22 24 29 34 0
5 -8 9 12 18 19 -21 -26 0
3 -10 -12 -18 -19 25 -31 -40 0
8 -16 27 30 -32 34 -36 37 0
-2 -15 -17 31 -32 36 37 38 0
-1 2 -7 -8 32 -33 37 39 0
-8 -9 11 -13 20 -21 -24 -33 0
-8 9 -19 -21 -24 28 -32 -37 0
-1 -3 -12 13 15 -23 33 37 0
-1 5 14 -15 -22 28 -31 36 0
-3 -5 -15 20 -24 -25 -36 39 0
3 6 7 -8 -11 -21 -25 36 0
12 17 -19 -23 -25 32 33 38 0
12 15 16 21 22 24 27 38 0
-1 -8 10 11 27 -29 -36 39 0
2 4 -12 15 -18 27 31 33 0
-1 6 -7 8 -12 -24 -37 40 0
-1 5 9 12 -17 21 -23 -34 0
1 7 19 24 -25 -26 -28 36 0
3 -4 -6 10 11 -23 -31 -34 0
6 12 -17 -18 -24 25 28 30 0
4 -11 13 -15 21 23 29 -33 0
-2 -7 -8 18 24 32 -36 -37 0
